language Essence 1.3

letting class be
        function(1 --> 8, 2 --> 8, 3 --> 6, 4 --> 8, 5 --> 7, 6 --> 5, 7 --> 8, 8 --> 6, 9 --> 6, 10 --> 4, 11 --> 5,
                 12 --> 3, 13 --> 6, 14 --> 3, 15 --> 3, 16 --> 8, 17 --> 2, 18 --> 8, 19 --> 4, 20 --> 4, 21 --> 6,
                 22 --> 1, 23 --> 3, 24 --> 5, 25 --> 1, 26 --> 5, 27 --> 9, 28 --> 2)
letting deck_length be 45
letting deck_width be 83
letting length be
        function(1 --> 10, 2 --> 3, 3 --> 13, 4 --> 27, 5 --> 41, 6 --> 42, 7 --> 16, 8 --> 24, 9 --> 25, 10 --> 23,
                 11 --> 30, 12 --> 4, 13 --> 5, 14 --> 17, 15 --> 17, 16 --> 41, 17 --> 40, 18 --> 43, 19 --> 12,
                 20 --> 45, 21 --> 26, 22 --> 37, 23 --> 43, 24 --> 7, 25 --> 7, 26 --> 2, 27 --> 35, 28 --> 24)
letting n_classes be 9
letting n_containers be 28
letting separation be function()
letting width be
        function(1 --> 1, 2 --> 1, 3 --> 1, 4 --> 1, 5 --> 4, 6 --> 1, 7 --> 1, 8 --> 1, 9 --> 1, 10 --> 1, 11 --> 1,
                 12 --> 1, 13 --> 1, 14 --> 1, 15 --> 1, 16 --> 9, 17 --> 1, 18 --> 24, 19 --> 2, 20 --> 3, 21 --> 1,
                 22 --> 1, 23 --> 14, 24 --> 1, 25 --> 1, 26 --> 1, 27 --> 1, 28 --> 1)
